63, 3007
2051, 158
2508, 190
2226, 279
5054, 211
3716, 185
4096, 477
5729, 218
5257, 179
1350, 348
1774, 354
4557, 267
2695, 128
4717, 477
3344, 332
1525, 414
4966, 143
4053, 469
5934, 270
2457, 254
4723, 372
4304, 279
2173, 183
1853, 232
3984, 335
5923, 292
5814, 209
2090, 164
3772, 156
4354, 466
5712, 368
4093, 392
1290, 352
3202, 373
3535, 159
5458, 145
1801, 417
4029, 411
5762, 492
3211, 333
5438, 363
1660, 468
1052, 249
2220, 420
3236, 285
1818, 420
4718, 365
3701, 180
3574, 178
2496, 171
2017, 200
5154, 317
5624, 214
5811, 236
2249, 173
1639, 286
5013, 344
1008, 492
3283, 224
5359, 474
5688, 122
5209, 288
5329, 490
2500, 246